results_rootrelaxation/bin012_050_040.srr.sol
solution status: optimal solution found
objective value:                                    1
_var346_                            0.154859231261988 	(obj:1)
_var351_                           0.0302774422488424 	(obj:0)
_var411_                            0.051658567008625 	(obj:0)
_var609_                            0.245616416225365 	(obj:0)
_var652_                            0.406125839944241 	(obj:0)
_var655_                            0.225112571783885 	(obj:0)
_var656_                           0.0981220189845711 	(obj:0)
_var662_                            0.390671523330584 	(obj:0)
_var674_                            0.311635986902788 	(obj:0)
_var675_                            0.017813768604636 	(obj:0)
_var682_                            0.532342432377092 	(obj:0)
_var684_                          0.00820501308406232 	(obj:0)
_var689_                           0.0614363915412899 	(obj:0)
_var695_                           0.0197125075376598 	(obj:0)
_var707_                            0.122881236533184 	(obj:0)
_var709_                            0.395713067343946 	(obj:1)
_var712_                            0.607748151042497 	(obj:0)
_var713_                            0.327305396870717 	(obj:0)
_var717_                            0.201384675209035 	(obj:0)
_var718_                           0.0172478570502724 	(obj:0)
_var720_                            0.194429833542163 	(obj:1)
_var726_                            0.057010070877487 	(obj:0)
_var727_                            0.409857099113891 	(obj:0)
_var733_                           0.0756804558100576 	(obj:0)
_var735_                            0.511440336484905 	(obj:0)
_var736_                            0.529425052646211 	(obj:0)
_var737_                            0.107278984533944 	(obj:0)
_var738_                             0.25583898618706 	(obj:0)
_var739_                           0.0959236521912304 	(obj:0)
_var741_                            0.170398552017838 	(obj:0)
_var742_                            0.176625457660423 	(obj:1)
_var743_                            0.184744527330006 	(obj:0)
_var747_                            0.108549819941502 	(obj:0)
_var748_                           0.0492775117549923 	(obj:0)
_var749_                            0.088629733227885 	(obj:0)
_var751_                           0.0264273651345886 	(obj:0)
_var754_                            0.331604915775453 	(obj:0)
_var755_                            0.294129829972932 	(obj:0)
_var759_                            0.147346931491357 	(obj:0)
_var761_                           0.0900860749125998 	(obj:0)
_var763_                            0.323228015862432 	(obj:0)
_var765_                            0.258537985110656 	(obj:0)
_var768_                            0.058714380446609 	(obj:0)
_var769_                            0.211604896990008 	(obj:0)
_var770_                            0.106744068965128 	(obj:0)
_var772_                            0.113314748265632 	(obj:0)
_var774_                            0.191284680281105 	(obj:0)
_var775_                           0.0605680343097396 	(obj:1)
_var777_                             0.24294324728973 	(obj:0)
_var780_                           0.0128638036394926 	(obj:0)
_var782_                            0.245674181471164 	(obj:0)
_var784_                           0.0933120055905503 	(obj:0)
_var786_                           0.0178043758817407 	(obj:1)
_var788_                           0.0749407788821539 	(obj:0)
_var789_                           0.0564836087592759 	(obj:0)
_var795_                           0.0223697088443755 	(obj:0)
_var799_                            0.152747277519266 	(obj:0)
_var800_                            0.294129829972932 	(obj:0)
_var801_                           0.0510306634831598 	(obj:0)
_var802_                           0.0922985307902857 	(obj:0)
_var805_                           0.0807018054691966 	(obj:0)
_var811_                           0.0416384102252951 	(obj:0)
_var812_                           0.0515092227146087 	(obj:0)
_var813_                           0.0149804537436591 	(obj:0)
