results_rootrelaxation/bin012_050_040.srr.log
SCIP version 8.0.3.5 [precision: 8 byte] [memory: block] [mode: optimized] [LP solver: Soplex 6.0.1.3] [GitHash: 438792519e]
Copyright (c) 2002-2023 Zuse Institute Berlin (ZIB)

External libraries: 
  Readline 8.1         GNU library for command line editing (gnu.org/s/readline)
  Soplex 6.0.1.3       Linear Programming Solver developed at Zuse Institute Berlin (soplex.zib.de) [GitHash: 713be0fe]
  CppAD 20180000.0     Algorithmic Differentiation of C++ algorithms developed by B. Bell (github.com/coin-or/CppAD)
  ZLIB 1.2.11          General purpose compression library by J. Gailly and M. Adler (zlib.net)
  bliss 0.77           Computing Graph Automorphism Groups by T. Junttila and P. Kaski (www.tcs.hut.fi/Software/bliss/)

user parameter file <scip.set> not found - using default parameters

srr/relaxation = TRUE

read problem <instances/bin012_050_040.srr>
============

Original problem: 
original problem has 0 variables (0 bin, 0 int, 0 impl, 0 cont) and 77 constraints

presolving:
presolving (1 rounds: 1 fast, 1 medium, 1 exhaustive):
 0 deleted vars, 0 deleted constraints, 0 added constraints, 0 tightened bounds, 0 added holes, 0 changed sides, 0 changed coefficients
 0 implications, 0 cliques
presolved problem has 0 variables (0 bin, 0 int, 0 impl, 0 cont) and 77 constraints
     77 constraints of type <linear>
Presolving Time: 0.00

 time | node  | left  |LP iter|LP it/n|mem/heur|mdpt |vars |cons |rows |cuts |sepa|confs|strbr|  dualbound   | primalbound  |  gap   | compl. 
  0.0s|     1 |     0 |     1 |     - |   710k |   0 |   1 |  77 |  77 |   0 |  0 |   0 |   0 |      --      |      --      |    Inf | unknown
r 0.0s|     1 |     0 |   857 |     - |simplero|   0 | 652 |  77 |  77 |   0 |  0 |   0 |   0 |      --      | 1.482246e+01 |    Inf | unknown
r 0.0s|     1 |     0 |   897 |     - |simplero|   0 | 663 |  77 |  77 |   0 |  0 |   0 |   0 |      --      | 1.347081e+01 |    Inf | unknown
r 0.1s|     1 |     0 |   952 |     - |simplero|   0 | 674 |  77 |  77 |   0 |  0 |   0 |   0 |      --      | 1.212412e+01 |    Inf | unknown
r 0.1s|     1 |     0 |   991 |     - |simplero|   0 | 685 |  77 |  77 |   0 |  0 |   0 |   0 |      --      | 1.079623e+01 |    Inf | unknown
r 0.1s|     1 |     0 |   999 |     - |simplero|   0 | 685 |  77 |  77 |   0 |  0 |   0 |   0 |      --      | 1.076605e+01 |    Inf | unknown
r 0.1s|     1 |     0 |  1039 |     - |simplero|   0 | 696 |  77 |  77 |   0 |  0 |   0 |   0 |      --      | 9.284444e+00 |    Inf | unknown
r 0.1s|     1 |     0 |  1077 |     - |simplero|   0 | 707 |  77 |  77 |   0 |  0 |   0 |   0 |      --      | 8.232770e+00 |    Inf | unknown
r 0.1s|     1 |     0 |  1078 |     - |simplero|   0 | 707 |  77 |  77 |   0 |  0 |   0 |   0 |      --      | 8.232253e+00 |    Inf | unknown
r 0.1s|     1 |     0 |  1145 |     - |simplero|   0 | 718 |  77 |  77 |   0 |  0 |   0 |   0 |      --      | 6.782635e+00 |    Inf | unknown
r 0.1s|     1 |     0 |  1156 |     - |simplero|   0 | 718 |  77 |  77 |   0 |  0 |   0 |   0 |      --      | 6.732333e+00 |    Inf | unknown
r 0.1s|     1 |     0 |  1158 |     - |simplero|   0 | 718 |  77 |  77 |   0 |  0 |   0 |   0 |      --      | 6.728103e+00 |    Inf | unknown
r 0.1s|     1 |     0 |  1191 |     - |simplero|   0 | 729 |  77 |  77 |   0 |  0 |   0 |   0 |      --      | 5.892628e+00 |    Inf | unknown
r 0.1s|     1 |     0 |  1217 |     - |simplero|   0 | 729 |  77 |  77 |   0 |  0 |   0 |   0 |      --      | 5.618659e+00 |    Inf | unknown
r 0.1s|     1 |     0 |  1225 |     - |simplero|   0 | 729 |  77 |  77 |   0 |  0 |   0 |   0 |      --      | 5.603042e+00 |    Inf | unknown
 time | node  | left  |LP iter|LP it/n|mem/heur|mdpt |vars |cons |rows |cuts |sepa|confs|strbr|  dualbound   | primalbound  |  gap   | compl. 
r 0.1s|     1 |     0 |  1276 |     - |simplero|   0 | 740 |  77 |  77 |   0 |  0 |   0 |   0 |      --      | 3.945390e+00 |    Inf | unknown
r 0.1s|     1 |     0 |  1291 |     - |simplero|   0 | 740 |  77 |  77 |   0 |  0 |   0 |   0 |      --      | 3.867584e+00 |    Inf | unknown
r 0.1s|     1 |     0 |  1299 |     - |simplero|   0 | 740 |  77 |  77 |   0 |  0 |   0 |   0 |      --      | 3.863466e+00 |    Inf | unknown
r 0.1s|     1 |     0 |  1306 |     - |simplero|   0 | 740 |  77 |  77 |   0 |  0 |   0 |   0 |      --      | 3.861598e+00 |    Inf | unknown
r 0.1s|     1 |     0 |  1347 |     - |simplero|   0 | 751 |  77 |  77 |   0 |  0 |   0 |   0 |      --      | 3.090718e+00 |    Inf | unknown
r 0.1s|     1 |     0 |  1356 |     - |simplero|   0 | 751 |  77 |  77 |   0 |  0 |   0 |   0 |      --      | 3.085940e+00 |    Inf | unknown
r 0.1s|     1 |     0 |  1358 |     - |simplero|   0 | 751 |  77 |  77 |   0 |  0 |   0 |   0 |      --      | 3.085784e+00 |    Inf | unknown
r 0.1s|     1 |     0 |  1389 |     - |simplero|   0 | 762 |  77 |  77 |   0 |  0 |   0 |   0 |      --      | 2.731557e+00 |    Inf | unknown
r 0.1s|     1 |     0 |  1403 |     - |simplero|   0 | 762 |  77 |  77 |   0 |  0 |   0 |   0 |      --      | 2.690922e+00 |    Inf | unknown
r 0.1s|     1 |     0 |  1412 |     - |simplero|   0 | 762 |  77 |  77 |   0 |  0 |   0 |   0 |      --      | 2.674973e+00 |    Inf | unknown
r 0.1s|     1 |     0 |  1461 |     - |simplero|   0 | 773 |  77 |  77 |   0 |  0 |   0 |   0 |      --      | 1.903569e+00 |    Inf | unknown
r 0.1s|     1 |     0 |  1473 |     - |simplero|   0 | 773 |  77 |  77 |   0 |  0 |   0 |   0 |      --      | 1.830452e+00 |    Inf | unknown
r 0.1s|     1 |     0 |  1483 |     - |simplero|   0 | 773 |  77 |  77 |   0 |  0 |   0 |   0 |      --      | 1.812206e+00 |    Inf | unknown
r 0.1s|     1 |     0 |  1484 |     - |simplero|   0 | 773 |  77 |  77 |   0 |  0 |   0 |   0 |      --      | 1.811776e+00 |    Inf | unknown
r 0.1s|     1 |     0 |  1506 |     - |simplero|   0 | 784 |  77 |  77 |   0 |  0 |   0 |   0 |      --      | 1.594591e+00 |    Inf | unknown
 time | node  | left  |LP iter|LP it/n|mem/heur|mdpt |vars |cons |rows |cuts |sepa|confs|strbr|  dualbound   | primalbound  |  gap   | compl. 
r 0.1s|     1 |     0 |  1529 |     - |simplero|   0 | 784 |  77 |  77 |   0 |  0 |   0 |   0 |      --      | 1.421948e+00 |    Inf | unknown
r 0.1s|     1 |     0 |  1531 |     - |simplero|   0 | 784 |  77 |  77 |   0 |  0 |   0 |   0 |      --      | 1.419389e+00 |    Inf | unknown
r 0.1s|     1 |     0 |  1559 |     - |simplero|   0 | 795 |  77 |  77 |   0 |  0 |   0 |   0 |      --      | 1.262883e+00 |    Inf | unknown
r 0.1s|     1 |     0 |  1567 |     - |simplero|   0 | 795 |  77 |  77 |   0 |  0 |   0 |   0 |      --      | 1.245076e+00 |    Inf | unknown
  0.1s|     1 |     0 |  1595 |     - |  3736k |   0 | 806 |  77 |  77 |   0 |  0 |   0 |   0 |      --      | 1.245076e+00 |    Inf | unknown
r 0.1s|     1 |     0 |  1595 |     - |simplero|   0 | 806 |  77 |  77 |   0 |  0 |   0 |   0 |      --      | 1.089921e+00 |    Inf | unknown
r 0.1s|     1 |     0 |  1606 |     - |simplero|   0 | 806 |  77 |  77 |   0 |  0 |   0 |   0 |      --      | 1.062198e+00 |    Inf | unknown
r 0.1s|     1 |     0 |  1612 |     - |simplero|   0 | 817 |  77 |  77 |   0 |  0 |   0 |   0 |      --      | 1.000000e+00 |    Inf | unknown
  0.1s|     1 |     0 |  1612 |     - |  4112k |   0 | 817 |  77 |  77 |   0 |  0 |   0 |   0 | 1.000000e+00 | 1.000000e+00 |   0.00%| unknown
  0.1s|     1 |     0 |  1612 |     - |  4112k |   0 | 817 |  77 |  77 |   0 |  0 |   0 |   0 | 1.000000e+00 | 1.000000e+00 |   0.00%| unknown

SCIP Status        : problem is solved [optimal solution found]
Solving Time (sec) : 0.10
Solving Nodes      : 1
Primal Bound       : +1.00000000000000e+00 (36 solutions)
Dual Bound         : +1.00000000000000e+00
Gap                : 0.00 %

written transformed problem to file <results_rootrelaxation/bin012_050_040.srr.lp>
written transformed problem to file <results_rootrelaxation/bin012_050_040.srr.cip>


SCIP version 8.0.3.5 [precision: 8 byte] [memory: block] [mode: optimized] [LP solver: Soplex 6.0.1.3] [GitHash: 438792519e]
Copyright (c) 2002-2023 Zuse Institute Berlin (ZIB)

External libraries: 
  Readline 8.1         GNU library for command line editing (gnu.org/s/readline)
  Soplex 6.0.1.3       Linear Programming Solver developed at Zuse Institute Berlin (soplex.zib.de) [GitHash: 713be0fe]
  CppAD 20180000.0     Algorithmic Differentiation of C++ algorithms developed by B. Bell (github.com/coin-or/CppAD)
  ZLIB 1.2.11          General purpose compression library by J. Gailly and M. Adler (zlib.net)
  bliss 0.77           Computing Graph Automorphism Groups by T. Junttila and P. Kaski (www.tcs.hut.fi/Software/bliss/)

user parameter file <scip.set> not found - using default parameters

srr/relaxation = TRUE

read problem <instances/bin012_050_040.srr>
============

Original problem: 
original problem has 0 variables (0 bin, 0 int, 0 impl, 0 cont) and 77 constraints

presolving:
presolving (1 rounds: 1 fast, 1 medium, 1 exhaustive):
 0 deleted vars, 0 deleted constraints, 0 added constraints, 0 tightened bounds, 0 added holes, 0 changed sides, 0 changed coefficients
 0 implications, 0 cliques
presolved problem has 0 variables (0 bin, 0 int, 0 impl, 0 cont) and 77 constraints
     77 constraints of type <linear>
Presolving Time: 0.00

 time | node  | left  |LP iter|LP it/n|mem/heur|mdpt |vars |cons |rows |cuts |sepa|confs|strbr|  dualbound   | primalbound  |  gap   | compl. 
  0.0s|     1 |     0 |     1 |     - |   710k |   0 |   1 |  77 |  77 |   0 |  0 |   0 |   0 |      --      |      --      |    Inf | unknown
r 0.0s|     1 |     0 |   857 |     - |simplero|   0 | 652 |  77 |  77 |   0 |  0 |   0 |   0 |      --      | 1.482246e+01 |    Inf | unknown
r 0.0s|     1 |     0 |   897 |     - |simplero|   0 | 663 |  77 |  77 |   0 |  0 |   0 |   0 |      --      | 1.347081e+01 |    Inf | unknown
r 0.0s|     1 |     0 |   952 |     - |simplero|   0 | 674 |  77 |  77 |   0 |  0 |   0 |   0 |      --      | 1.212412e+01 |    Inf | unknown
r 0.0s|     1 |     0 |   991 |     - |simplero|   0 | 685 |  77 |  77 |   0 |  0 |   0 |   0 |      --      | 1.079623e+01 |    Inf | unknown
r 0.0s|     1 |     0 |   999 |     - |simplero|   0 | 685 |  77 |  77 |   0 |  0 |   0 |   0 |      --      | 1.076605e+01 |    Inf | unknown
r 0.0s|     1 |     0 |  1039 |     - |simplero|   0 | 696 |  77 |  77 |   0 |  0 |   0 |   0 |      --      | 9.284444e+00 |    Inf | unknown
r 0.1s|     1 |     0 |  1077 |     - |simplero|   0 | 707 |  77 |  77 |   0 |  0 |   0 |   0 |      --      | 8.232770e+00 |    Inf | unknown
r 0.1s|     1 |     0 |  1078 |     - |simplero|   0 | 707 |  77 |  77 |   0 |  0 |   0 |   0 |      --      | 8.232253e+00 |    Inf | unknown
r 0.1s|     1 |     0 |  1145 |     - |simplero|   0 | 718 |  77 |  77 |   0 |  0 |   0 |   0 |      --      | 6.782635e+00 |    Inf | unknown
r 0.1s|     1 |     0 |  1156 |     - |simplero|   0 | 718 |  77 |  77 |   0 |  0 |   0 |   0 |      --      | 6.732333e+00 |    Inf | unknown
r 0.1s|     1 |     0 |  1158 |     - |simplero|   0 | 718 |  77 |  77 |   0 |  0 |   0 |   0 |      --      | 6.728103e+00 |    Inf | unknown
r 0.1s|     1 |     0 |  1191 |     - |simplero|   0 | 729 |  77 |  77 |   0 |  0 |   0 |   0 |      --      | 5.892628e+00 |    Inf | unknown
r 0.1s|     1 |     0 |  1217 |     - |simplero|   0 | 729 |  77 |  77 |   0 |  0 |   0 |   0 |      --      | 5.618659e+00 |    Inf | unknown
r 0.1s|     1 |     0 |  1225 |     - |simplero|   0 | 729 |  77 |  77 |   0 |  0 |   0 |   0 |      --      | 5.603042e+00 |    Inf | unknown
 time | node  | left  |LP iter|LP it/n|mem/heur|mdpt |vars |cons |rows |cuts |sepa|confs|strbr|  dualbound   | primalbound  |  gap   | compl. 
r 0.1s|     1 |     0 |  1276 |     - |simplero|   0 | 740 |  77 |  77 |   0 |  0 |   0 |   0 |      --      | 3.945390e+00 |    Inf | unknown
r 0.1s|     1 |     0 |  1291 |     - |simplero|   0 | 740 |  77 |  77 |   0 |  0 |   0 |   0 |      --      | 3.867584e+00 |    Inf | unknown
r 0.1s|     1 |     0 |  1299 |     - |simplero|   0 | 740 |  77 |  77 |   0 |  0 |   0 |   0 |      --      | 3.863466e+00 |    Inf | unknown
r 0.1s|     1 |     0 |  1306 |     - |simplero|   0 | 740 |  77 |  77 |   0 |  0 |   0 |   0 |      --      | 3.861598e+00 |    Inf | unknown
r 0.1s|     1 |     0 |  1347 |     - |simplero|   0 | 751 |  77 |  77 |   0 |  0 |   0 |   0 |      --      | 3.090718e+00 |    Inf | unknown
r 0.1s|     1 |     0 |  1356 |     - |simplero|   0 | 751 |  77 |  77 |   0 |  0 |   0 |   0 |      --      | 3.085940e+00 |    Inf | unknown
r 0.1s|     1 |     0 |  1358 |     - |simplero|   0 | 751 |  77 |  77 |   0 |  0 |   0 |   0 |      --      | 3.085784e+00 |    Inf | unknown
r 0.1s|     1 |     0 |  1389 |     - |simplero|   0 | 762 |  77 |  77 |   0 |  0 |   0 |   0 |      --      | 2.731557e+00 |    Inf | unknown
r 0.1s|     1 |     0 |  1403 |     - |simplero|   0 | 762 |  77 |  77 |   0 |  0 |   0 |   0 |      --      | 2.690922e+00 |    Inf | unknown
r 0.1s|     1 |     0 |  1412 |     - |simplero|   0 | 762 |  77 |  77 |   0 |  0 |   0 |   0 |      --      | 2.674973e+00 |    Inf | unknown
r 0.1s|     1 |     0 |  1461 |     - |simplero|   0 | 773 |  77 |  77 |   0 |  0 |   0 |   0 |      --      | 1.903569e+00 |    Inf | unknown
r 0.1s|     1 |     0 |  1473 |     - |simplero|   0 | 773 |  77 |  77 |   0 |  0 |   0 |   0 |      --      | 1.830452e+00 |    Inf | unknown
r 0.1s|     1 |     0 |  1483 |     - |simplero|   0 | 773 |  77 |  77 |   0 |  0 |   0 |   0 |      --      | 1.812206e+00 |    Inf | unknown
r 0.1s|     1 |     0 |  1484 |     - |simplero|   0 | 773 |  77 |  77 |   0 |  0 |   0 |   0 |      --      | 1.811776e+00 |    Inf | unknown
r 0.1s|     1 |     0 |  1506 |     - |simplero|   0 | 784 |  77 |  77 |   0 |  0 |   0 |   0 |      --      | 1.594591e+00 |    Inf | unknown
 time | node  | left  |LP iter|LP it/n|mem/heur|mdpt |vars |cons |rows |cuts |sepa|confs|strbr|  dualbound   | primalbound  |  gap   | compl. 
r 0.1s|     1 |     0 |  1529 |     - |simplero|   0 | 784 |  77 |  77 |   0 |  0 |   0 |   0 |      --      | 1.421948e+00 |    Inf | unknown
r 0.1s|     1 |     0 |  1531 |     - |simplero|   0 | 784 |  77 |  77 |   0 |  0 |   0 |   0 |      --      | 1.419389e+00 |    Inf | unknown
r 0.1s|     1 |     0 |  1559 |     - |simplero|   0 | 795 |  77 |  77 |   0 |  0 |   0 |   0 |      --      | 1.262883e+00 |    Inf | unknown
r 0.1s|     1 |     0 |  1567 |     - |simplero|   0 | 795 |  77 |  77 |   0 |  0 |   0 |   0 |      --      | 1.245076e+00 |    Inf | unknown
  0.1s|     1 |     0 |  1595 |     - |  3736k |   0 | 806 |  77 |  77 |   0 |  0 |   0 |   0 |      --      | 1.245076e+00 |    Inf | unknown
r 0.1s|     1 |     0 |  1595 |     - |simplero|   0 | 806 |  77 |  77 |   0 |  0 |   0 |   0 |      --      | 1.089921e+00 |    Inf | unknown
r 0.1s|     1 |     0 |  1606 |     - |simplero|   0 | 806 |  77 |  77 |   0 |  0 |   0 |   0 |      --      | 1.062198e+00 |    Inf | unknown
r 0.1s|     1 |     0 |  1612 |     - |simplero|   0 | 817 |  77 |  77 |   0 |  0 |   0 |   0 |      --      | 1.000000e+00 |    Inf | unknown
  0.1s|     1 |     0 |  1612 |     - |  4112k |   0 | 817 |  77 |  77 |   0 |  0 |   0 |   0 | 1.000000e+00 | 1.000000e+00 |   0.00%| unknown
  0.1s|     1 |     0 |  1612 |     - |  4112k |   0 | 817 |  77 |  77 |   0 |  0 |   0 |   0 | 1.000000e+00 | 1.000000e+00 |   0.00%| unknown

SCIP Status        : problem is solved [optimal solution found]
Solving Time (sec) : 0.08
Solving Nodes      : 1
Primal Bound       : +1.00000000000000e+00 (36 solutions)
Dual Bound         : +1.00000000000000e+00
Gap                : 0.00 %

written transformed problem to file <results_rootrelaxation/bin012_050_040.srr.lp>
written transformed problem to file <results_rootrelaxation/bin012_050_040.srr.cip>

written solution information to file <results_rootrelaxation/bin012_050_040.srr.sol>



